sat
(:eliminated-applications 30
 :eliminated-vars         108
 :max-memory              42.07
 :memory                  33.45
 :nlsat-conflicts         2436
 :nlsat-decisions         1919
 :nlsat-propagations      1994233
 :nlsat-stages            1296677
 :num-allocs              391970444
 :rlimit-count            53067027
 :time                    18.05
 :total-time              18.11)
